unsat
(forall ((A (_ BitVec 8))
         (B (_ BitVec 1))
         (C (_ BitVec 8))
         (D (_ BitVec 1))
         (E (_ BitVec 8))
         (F (_ BitVec 1))
         (G (_ BitVec 8))
         (H (_ BitVec 1))
         (I (_ BitVec 8))
         (J (_ BitVec 8))
         (K (_ BitVec 8))
         (L (_ BitVec 8))
         (M (_ BitVec 8))
         (N (_ BitVec 8))
         (O (_ BitVec 8))
         (P (_ BitVec 8))
         (Q (_ BitVec 1))
         (R (_ BitVec 2))
         (S (_ BitVec 8))
         (T (_ BitVec 8))
         (U (_ BitVec 2))
         (V (_ BitVec 2)))
  (! (let ((a!1 (and (or (not (= A K)) (bvule K I))
                     (or (not (= K M)) (= M #x00))
                     (or (not (= B #b1)) (not (= H #b1)))
                     (or (not (= B #b1)) (not (= F #b1)))
                     (or (not (= D #b1)) (not (= F #b1)))
                     (or (not (= D #b1)) (not (= H #b1)))
                     (or (not (= D #b1)) (not (= B #b1)))
                     (or (not (= T K)) (bvule T O))
                     (or (bvule S I) (not (= B #b1)) (not (= A S)))
                     (or (bvule S I) (not (= D #b1)) (not (= A S)))
                     (or (not (= T M)) (bvule T I))
                     (or (not (= T N)) (bvule T P))
                     (or (not (= F #b1)) (not (= H #b1)))
                     (or (not (= K N)) (= K #x00))
                     (or (not (= T L)) (bvule T J))
                     (or (not (= M N)) (= M #x00))
                     (or (not (= N L)) (= N #x00))
                     (or (bvule T I) (not (= B #b1)) (not (= A T)))
                     (or (bvule T O) (not (= H #b1)) (not (= G T)))
                     (or (bvule S J) (not (= D #b1)) (not (= C S)))
                     (or (bvule S O) (not (= H #b1)) (not (= G S)))
                     (or (bvule S I) (not (= H #b1)) (not (= A S)))
                     (or (not (= B #b1)) (bvule J I) (not (= J A)))
                     (or (not (= B #b1)) (bvule A I))
                     (or (bvule S P) (not (= F #b1)) (not (= S E)))
                     (or (bvule S I) (not (= F #b1)) (not (= A S)))
                     (or (bvule S I) (not (= S M)))
                     (bvule M I)
                     (bvule K O)
                     (or (not (= S O)) (bvule K S))
                     (or (not (= H #b1)) (bvule G O))
                     (or (bvule S O) (not (= G S)) (not (= F #b1)))
                     (bvule N P)
                     (or (bvule T P) (not (= F #b1)) (not (= T E)))
                     (or (not (= F #b1)) (bvule E P))
                     (or (= K #x00) (not (= D #b1)) (not (= P K)) (not (= C P)))
                     (or (bvule T J) (not (= D #b1)) (not (= C T)))
                     (or (bvule S J) (not (= H #b1)) (not (= C S)))
                     (bvule L J)
                     (or (bvule S J) (not (= S L)))
                     (or (not (= D #b1)) (not (= C P)) (bvule P J))
                     (or (not (= D #b1)) (bvule C J))
                     (or (not (= L K)) (= K #x00))
                     (or (bvule S J) (not (= C S)) (bvule E P))
                     (or (bvule S J) (not (= C S)) (bvule M S))
                     (or (not (= H #b1)) (bvule M O))
                     (or (not (= K N)) (not (= F #b1)))
                     (or (bvule T P) (not (= F #b1)) (not (= T M)))
                     (or (not (= A T)) (not (= C S)) (bvule S J) (bvule T I))
                     (or (bvule S J) (not (= C S)) (bvule A I))
                     (or (bvule S O) (not (= G S)) (bvule A I))
                     (or (bvule S I) (not (= A S)) (bvule K S))
                     (or (not (= N L)) (not (= F #b1)))
                     (or (not (= B #b1)) (bvule K I))
                     (or (bvule T P) (not (= F #b1)) (not (= T K)))
                     (or (not (= D #b1)) (bvule #x01 J))
                     (or (bvule S J) (not (= C S)) (bvule G O))
                     (or (bvule S O) (not (= G S)) (not (= D #b1)))
                     (or (bvule S I) (not (= A S)) (not (= K S)))
                     (or (bvule S I) (not (= A S)) (bvule L S))
                     (or (not (= G L)) (bvule L O))
                     (or (bvule S O)
                         (not (= H #b1))
                         (not ((_ bit2bool 7) O))
                         (not (= L S)))
                     (or (not (= H #b1)) (bvule L O))
                     (or (bvule S O) (not (= G S)) (bvule L S))
                     (or (bvule S I) (not (= A S)) (bvule C J))
                     (or (bvule S J) (not (= B #b1)) (not (= C S)))
                     (or (bvule S J) (not (= F #b1)) (not (= C S)))
                     (or (bvule S O) (not (= G S)) (bvule C J))
                     (or (bvule S J) (not (= C S)) (bvule N S))
                     (or (not (= H #b1)) (bvule N O))
                     (or (not (= N G)) (not (= O S)) (bvule N S))
                     (or (bvule N O) (not (= G N)))
                     (or (bvule T I) (not (= B #b1)) (not (= T N)))
                     (or (bvule S I) (not (= A S)) (bvule E P))
                     (or (bvule S O) (not (= G S)) (bvule E P))
                     (or (not (= N A)) (bvule N I))
                     (or (not (= D #b1)) (bvule G O))
                     (or (not (= F #b1)) (bvule C J))
                     (or (= K #x00)
                         (bvule T J)
                         (bvule S P)
                         (not (= E S))
                         (not (= C T)))
                     (or (not (= B #b1)) (bvule C J))
                     (or (bvule S I) (not (= A S)) (not (= G K)) (bvule G S))
                     (or (bvule T I) (not (= A T)) (bvule K T))
                     (or (not (= B #b1))
                         (not (= H #b0))
                         (bvule K S)
                         (not (= S I))
                         (not (= P S)))
                     (or (bvule A I) (bvule K A))
                     (or (bvule T I)
                         (not (= B #b1))
                         (not (= H #b0))
                         (not (= T K)))
                     (or (not (= F #b1)) (bvule K P))
                     (or (bvule T O) (not (= F #b1)) (not (= T G)))
                     (or (not (= F #b1)) (bvule G O))
                     (or (not (= H #b1))
                         (bvule M S)
                         (not (= S E))
                         (not (= S O)))
                     (or (not (= D #b1)) (bvule E P))
                     (or (bvule S O)
                         (not (= G S))
                         (not (bvule S I))
                         (bvule J P)
                         (not (= E J)))
                     (or (not (= D #b1)) (bvule K J))
                     (or (not (= K O))
                         (not (= C S))
                         (not (bvule S O))
                         (bvule S J))
                     (or (bvule T I) (not (= H #b1)) (not (= A T)))
                     (or (bvule T J)
                         (not (= D #b1))
                         (not (= T A))
                         (not (= K I)))
                     (or (bvule T I) (not (= D #b1)) (not (= A T)))
                     (or (bvule T O) (bvule S I) (not (= A S)) (not (= T G)))
                     (or (bvule S O) (not (= G S)) (not (= B #b1)))
                     (or (bvule S I) (not (= A S)) (bvule G O))
                     (or (bvule T J) (bvule G O) (not (= C T)))
                     (or (bvule C J) (bvule G O))
                     (or (not (= B #b1)) (bvule G O))
                     (or (bvule A I) (bvule G O))
                     (or (not (= D #b1)) (bvule M J))
                     (or (bvule T J) (not (= D #b1)) (not (= T M)))
                     (or (bvule S O) (not (= G S)) (bvule M S))
                     (or (bvule M G) (bvule G O))
                     (or (bvule T I) (not (= F #b1)) (not (= A T)))
                     (or (bvule S O) (bvule S I) (not (= G S)) (not (= A S)))
                     (or (bvule G O) (not (= S P)) (bvule E S))
                     (or (bvule E P) (bvule G O))
                     (or (bvule S P) (not (= S E)) (bvule G O))
                     (or (not (= F #b1)) (bvule M P))
                     (or (bvule S J) (not (= C S)) (bvule K S))
                     (or (bvule T J) (not (= D #b1)) (not (= T K)))
                     (or (bvule S P) (not (= E S)) (bvule A I))
                     (or (not (= F #b1)) (bvule A I))
                     (or (bvule A I) (bvule E P))
                     (or (not (= H #b1)) (bvule A O) (not (= M I)))
                     (or (not (= H #b1)) (bvule A I))
                     (or (bvule T J) (bvule A I) (not (= C T)))
                     (or (bvule A I) (bvule C J))
                     (or (not (= D #b1)) (bvule A I))
                     (or (not (= F #b1)) (bvule L P))
                     (or (bvule T P) (not (= F #b1)) (not (= T L)))
                     (or (not (= B #b1)) (bvule L I))
                     (or (bvule T O) (not (= H #b1)) (not (= T L)))
                     (or (= D #b1) (bvule S I) (not (= L S)) (not (= A L)))
                     (or (bvule T J) (not (= H #b1)) (not (= C T)))
                     (or (bvule S I) (bvule S J) (not (= A S)) (not (= C S)))
                     (or (bvule J P) (bvule C J) (not (= E J)))
                     (or (bvule S P) (not (= S E)) (not (= J S)) (bvule C S))
                     (or (bvule C J) (bvule E P))
                     (or (bvule S P) (not (= E S)) (bvule C J))
                     (or (not (= H #b1)) (bvule C J))
                     (or (bvule T P) (not (= B #b1)) (not (= T E)))
                     (or (bvule T P) (not (= H #b1)) (not (= T E)))
                     (or (bvule S O) (bvule S P) (not (= G S)) (not (= S E)))
                     (or (bvule S I) (not (= A S)) (bvule J P) (not (= E J)))
                     (or (not (= B #b1)) (bvule J P) (not (= E J)))
                     (or (bvule S P)
                         (not (= B #b1))
                         (not (bvule S J))
                         (not (= E J)))
                     (or (not (= H #b1)) (bvule E P))
                     (or (bvule S P) (not (= H #b1)) (not (= S E)))
                     (or (not (= B #b1)) (bvule E P))
                     (or (bvule T P) (bvule S I) (not (= A S)) (not (= T E)))
                     (or (bvule S P) (not (= B #b1)) (not (= S E)))
                     (or (bvule S P) (not (= D #b1)) (not (= S E)))
                     (or (bvule S O)
                         (not (= H #b1))
                         (not (bvule S I))
                         (not (= N S)))
                     (or (not (= D #b1)) (bvule N J))
                     (or (not (= M K)) (not (bvule #x02 I)))
                     (or (bvule S I) (not (= B #b1)) (not (= N S)))
                     (or (not (= B #b1)) (bvule N I))
                     (or (bvule S O) (not (= G S)) (bvule N S))
                     (or (not (= H #b1)) (not (= S O)) (bvule N S))
                     (or (bvule T J) (not (= T C)) (bvule N T))
                     (or (bvule T J) (not (= D #b1)) (not (= T N)))
                     (or (not (= S N)) (not (= G S)) (bvule S O))
                     (or (bvule S I) (bvule S P) (not (= E S)) (not (= A S)))
                     (or (bvule S J) (bvule S P) (not (= C S)) (not (= S E)))
                     (or (not (= C N)) (not (= C S)) (bvule S J))
                     (or (bvule S O) (bvule S J) (not (= G S)) (not (= C S)))
                     (or (bvule S O) (not (= G S)) (not (= S L)))
                     (or (bvule T P) (not (= T E)) (bvule K T))
                     (or (bvule K E) (bvule E P))
                     (or (bvule S P) (not (= E S)) (bvule K S))
                     (or (bvule T I) (not (= A T)) (bvule N T))
                     (or (bvule S I) (not (= A S)) (bvule N S))
                     (or (bvule K C) (bvule C J))
                     (or (bvule T I) (not (= B #b1)) (not (= T L)))
                     (or (not (= K S)) (not (= C S)) (bvule S J))
                     (or (not (= S L)) (bvule E P) (bvule S E))
                     (or (bvule S P) (not (= E S)) (bvule L S))
                     (or (bvule T P) (not (= T E)) (bvule M T))
                     (or (bvule S P) (not (= E S)) (bvule M S))
                     (or (bvule S J) (not (= C S)) (not (= S M)))
                     (or (not (= M G)) (bvule M O))
                     (or (bvule S O) (not (= G S)) (not (= S M)))
                     (or (bvule A I) (bvule N A))
                     (or (bvule J S)
                         (not (= S O))
                         (bvule N J)
                         (not (= T G))
                         (not (= T J)))
                     (or (bvule J O) (bvule N J) (not (= G J)))
                     (or (bvule N G) (bvule G O))
                     (or (bvule N C) (bvule C J))
                     (or (bvule O P) (not (= E O)) (not (= K E)))
                     (or (bvule K P) (not (= E K)))
                     (or (not (= K S)) (not (= E S)) (bvule S P))
                     (or (bvule L G) (bvule G O))
                     (or (not (= H #b1)) (not (= S O)) (bvule L S))
                     (or (bvule A I) (bvule L A))
                     (or (bvule L E) (bvule E P))
                     (or (not (= C K)) (bvule K J))
                     (or (not (= S P)) (bvule E S) (bvule M E))
                     (or (bvule M E) (bvule E P))
                     (or (not (= C M)) (bvule M J))
                     (or (bvule M C) (bvule C J))
                     (or (not (= A L)) (not (= I S)) (bvule L S))
                     (or (not (= A L)) (bvule L I))
                     (or (not (= M L)) (= L #x00))
                     (or (bvule M P) (not (= E M)))
                     (or (bvule S P) (not (= M S)) (not (= M E)))
                     (or (bvule S I) (not (= A S)) (not (= N S)))
                     (or (bvule O P) (not (= E O)) (not (= E L)))
                     (or (bvule N J) (not (= C N)))
                     (or (not (= S P)) (bvule L S) (not (= E L)))
                     (or (bvule L P) (not (= L E)))
                     (or (bvule S P) (not (= S L)) (not (= S E)))
                     (or (not (= A K)) (bvule K S) (not (= S I))))))
       (= (INV!slice!1 A B C D E F G H I J K L M N O P Q R S T U V) a!1))
     :weight 0))
